#p PBEPBE/6-31G* td=(singlets, nstates=10) pop=full iop(9/40=3)

FaFa 

0 1
C           1.75000         0.00000         0.59225
C          -1.75000         0.00000         0.59225
O           1.75000         0.00000        -0.59537
O          -1.75000         0.00000        -0.59537
H           1.75000         0.92490         1.17073
H          -1.75000         0.92490         1.17073
H           1.75000        -0.92490         1.17073
H          -1.75000        -0.92490         1.17073

