! RKS PBE 6-31G*
%tddft
 nroots 10
end
%output
 PrintLevel Normal
 Print[ P_MOs ] 1
 Print[ P_Overlap ] 1
end

%maxcore 4000

*xyz 0 1
C          1.75000        0.00000        0.59225
C         -1.75000        0.00000        0.59225
O          1.75000        0.00000       -0.59537
O         -1.75000        0.00000       -0.59537
H          1.75000        0.92490        1.17073
H         -1.75000        0.92490        1.17073
H          1.75000       -0.92490        1.17073
H         -1.75000       -0.92490        1.17073
*
