$molecule
 read coord.qchem
$end

$rem
jobtyp		sp
exchange	omegaB97
ecp		lanl2dz
basis		gen
mem_total	 64000
mem_static	1500
cis_n_roots	6
cis_singlets	true
cis_triplets	false
rpa		true
cis_ampl_anal	true
nto_pairs	3
cis_ampl_print  1
$end

$basis
   Ir
   lanl2dz
****
   C
   6-31G*
****
   N
   6-31G*
****
   H
   6-31G*
$end
